NAME : portcgen-26-6
COMMENT : portcgen N=26, seed=6
TYPE : TSP
DIMENSION : 26
EDGE_WEIGHT_TYPE : EUC_2D
NODE_COORD_SECTION
1 -72686 154129
2 61876 -132716
3 168579 9939
4 95280 208368
5 -121249 138563
6 62665 -96925
7 263196 440705
8 149415 -180891
9 -97697 -135905
10 50804 -273742
11 122755 -64968
12 -149041 102891
13 -181802 -274498
14 3159 28375
15 127251 280658
16 -97129 -25170
17 126092 -271397
18 7209 -27474
19 105444 111962
20 128927 153854
21 -354408 48160
22 -35956 -192437
23 -542559 -75384
24 43896 -12346
25 -46877 21448
26 263673 -141993
